Solving original (integer) problem with strategy gdp.bigm...
--- Job model.gms Start 02/15/26 21:45:03 52.2.0 d8e408be LEX-LEG x86 64bit/Linux
--- Applying:
    /package/gams/52.2/gmsprmun.txt
--- GAMS Parameters defined
    Input /local/scratch/a/sgusev/repos/k_means/data/gams_scip_gdp.bigm/no_mode/2026-02-15_21-45-02/original/model.gms
    Output /local/scratch/a/sgusev/repos/k_means/data/gams_scip_gdp.bigm/no_mode/2026-02-15_21-45-02/original/output.lst
    ScrDir /local/scratch/a/sgusev/repos/k_means/data/gams_scip_gdp.bigm/no_mode/2026-02-15_21-45-02/original/225a/
    SysDir /package/gams/52.2/
    CurDir /local/scratch/a/sgusev/repos/k_means/data/gams_scip_gdp.bigm/no_mode/2026-02-15_21-45-02/original/
    LogOption 3
    AppendLog 1
Licensee: David Bernal / SECQUOIA Research Group         G251008+0003Ac-GEN
          Purdue University, Davidson School of Chemical EngineeringDCE4838
          225a/gamslice.dat
          5a82958a-fbca-4a23
          node:66820903 mem:995 cores:48 ipport:37683 v:2                  
          Evaluation license: Not for commercial or production use
          The time-limited license stops working on : Jun 30, 2027
System information: 48 physical cores and 995 Gb physical memory detected
GAMS 52.2.0   Copyright (C) 1987-2025 GAMS Development. All rights reserved
--- Starting compilation
--- model.gms(259) 2 Mb
--- $echo File /local/scratch/a/sgusev/repos/k_means/data/gams_scip_gdp.bigm/no_mode/2026-02-15_21-45-02/original/scip.opt
--- model.gms(462) 2 Mb
--- Starting execution: elapsed 0:00:00.006
--- model.gms(269) 3 Mb
--- Generating MINLP model GAMS_MODEL
--- model.gms(273) 5 Mb
---   65 rows  71 columns  269 non-zeroes
---   450 nl-code  100 nl-non-zeroes
---   50 discrete-columns
--- Range statistics (absolute non-zero finite values)
--- RHS       [min, max] : [ 1.000E+00, 6.739E+00] - Zero values observed as well
--- Bound     [min, max] : [ 1.000E+00, 4.000E+01] - Zero values observed as well
--- Matrix    [min, max] : [ 2.449E-02, 6.739E+00]
--- model.gms(273) 3 Mb
--- Executing SCIP (Solvelink=5): elapsed 0:00:00.009

SCIP             52.2.0 d8e408be Dec 8, 2025           LEG x86 64bit/Linux    
SCIP version 9.2.4 (a94f778ac8)
Copyright (c) 2002-2025 Zuse Institute Berlin (ZIB)

External libraries: 
  CPLEX 22.1.2.0       Linear Programming Solver developed by IBM (www.cplex.com)
  CppAD 20180000.0     Algorithmic Differentiation of C++ algorithms developed by B. Bell (github.com/coin-or/CppAD)
  PaPILO 2.4.4         parallel presolve for integer and linear optimization (github.com/scipopt/papilo) (built with TBB) [GitHash: 7c826d50]
  Nauty 2.8.9          Computing Graph Automorphism Groups by Brendan D. McKay (users.cecs.anu.edu.au/~bdm/nauty)
  sassy 1.1            Symmetry preprocessor by Markus Anders (github.com/markusa4/sassy)
  Ipopt 3.14.19        Interior Point Optimizer developed by A. Waechter et.al. (github.com/coin-or/Ipopt)

reading option file /local/scratch/a/sgusev/repos/k_means/data/gams_scip_gdp.bigm/no_mode/2026-02-15_21-45-02/original/scip.opt
non-default parameter settings:
limits/time = 300
limits/gap = 1e-06
limits/absgap = 1e-10
lp/threads = 1
misc/printreason = FALSE
numerics/dualfeastol = 1e-06
parallel/maxnthreads = 1
nlpi/ipopt/linear_solver = "ma27"
nlpi/ipopt/linear_system_scaling = "mc19"

original problem has 70 variables (50 bin, 0 int, 20 cont) and 64 constraints

all 1 solutions given by solution candidate storage are infeasible

presolving:
(round 1, exhaustive) 0 del vars, 0 del conss, 0 add conss, 0 chg bounds, 0 chg sides, 0 chg coeffs, 10 upgd conss, 0 impls, 10 clqs
   (0.0s) probing cycle finished: starting next cycle
   (0.0s) probing: 1/50 (2.0%) - 0 fixings, 0 aggregations, 0 implications, 0 bound changes
   (0.0s) probing aborted: 50/50 successive totally useless probings
   (0.0s) symmetry computation started: requiring (bin +, int +, cont +), (fixed: bin -, int -, cont -)
   (0.0s) no symmetry present (symcode time: 0.00)
presolving (2 rounds: 2 fast, 2 medium, 2 exhaustive):
 0 deleted vars, 0 deleted constraints, 0 added constraints, 0 tightened bounds, 0 added holes, 0 changed sides, 0 changed coefficients
 0 implications, 10 cliques
presolved problem has 70 variables (50 bin, 0 int, 0 impl, 20 cont) and 64 constraints
     10 constraints of type <setppc>
      4 constraints of type <linear>
     50 constraints of type <nonlinear>
Presolving Time: 0.01

 time | node  | left  |LP iter|LP it/n|mem/heur|mdpt |vars |cons |rows |cuts |sepa|confs|strbr|  dualbound   | primalbound  |  gap   | compl. 
t 0.1s|     1 |     0 |    30 |     - |  trysol|   0 | 130 |  64 |  84 |   0 |  0 |   0 |   0 | 0.000000e+00 | 6.226303e+00 |    Inf | unknown
  0.1s|     1 |     0 |    72 |     - |  2276k |   0 | 130 |  64 |  84 |   0 |  0 |   0 |   0 | 0.000000e+00 | 6.226303e+00 |    Inf | unknown
t 0.1s|     1 |     0 |    72 |     - |  trysol|   0 | 130 |  64 |  84 |   0 |  0 |   0 |   0 | 0.000000e+00 | 5.377878e+00 |    Inf | unknown
  0.1s|     1 |     0 |    92 |     - |  2394k |   0 | 130 |  64 |  93 |   9 |  1 |   0 |   0 | 0.000000e+00 | 5.377878e+00 |    Inf | unknown
  0.1s|     1 |     0 |    92 |     - |  2400k |   0 | 130 |  64 |  93 |   9 |  1 |   0 |   0 | 0.000000e+00 | 5.377878e+00 |    Inf | unknown
  0.1s|     1 |     0 |   109 |     - |  2555k |   0 | 130 |  64 | 103 |  19 |  2 |   0 |   0 | 0.000000e+00 | 5.377878e+00 |    Inf | unknown
  0.1s|     1 |     0 |   127 |     - |  2615k |   0 | 130 |  64 | 113 |  29 |  3 |   0 |   0 | 0.000000e+00 | 5.377878e+00 |    Inf | unknown
  0.1s|     1 |     0 |   139 |     - |  2800k |   0 | 130 |  64 | 121 |  37 |  4 |   0 |   0 | 0.000000e+00 | 5.377878e+00 |    Inf | unknown
r 0.1s|     1 |     0 |   139 |     - |shifting|   0 | 130 |  64 | 121 |  37 |  4 |   0 |   0 | 0.000000e+00 | 3.804136e+00 |    Inf | unknown
  0.1s|     1 |     0 |   154 |     - |  2867k |   0 | 130 |  64 | 129 |  45 |  5 |   0 |   0 | 0.000000e+00 | 3.804136e+00 |    Inf | unknown
  0.1s|     1 |     0 |   154 |     - |  2868k |   0 | 130 |  64 | 129 |  45 |  5 |   0 |   0 | 0.000000e+00 | 3.804136e+00 |    Inf | unknown
  0.1s|     1 |     0 |   169 |     - |  2960k |   0 | 130 |  64 | 138 |  54 |  6 |   0 |   0 | 0.000000e+00 | 3.804136e+00 |    Inf | unknown
  0.1s|     1 |     0 |   184 |     - |  3034k |   0 | 130 |  64 | 147 |  63 |  7 |   0 |   0 | 0.000000e+00 | 3.804136e+00 |    Inf | unknown
  0.1s|     1 |     0 |   201 |     - |  3077k |   0 | 130 |  64 | 155 |  71 |  8 |   0 |   0 | 0.000000e+00 | 3.804136e+00 |    Inf | unknown
  0.1s|     1 |     0 |   218 |     - |  3142k |   0 | 130 |  64 | 165 |  81 |  9 |   0 |   0 | 0.000000e+00 | 3.804136e+00 |    Inf | unknown
 time | node  | left  |LP iter|LP it/n|mem/heur|mdpt |vars |cons |rows |cuts |sepa|confs|strbr|  dualbound   | primalbound  |  gap   | compl. 
  0.1s|     1 |     0 |   245 |     - |  3341k |   0 | 130 |  64 | 173 |  89 | 10 |   0 |   0 | 0.000000e+00 | 3.804136e+00 |    Inf | unknown
  0.1s|     1 |     0 |   263 |     - |  3377k |   0 | 130 |  64 | 180 |  96 | 11 |   0 |   0 | 0.000000e+00 | 3.804136e+00 |    Inf | unknown
L 0.7s|     1 |     0 |   355 |     - |    rens|   0 | 130 |  64 | 180 |  96 | 11 |   0 |   0 | 0.000000e+00 | 1.211311e+00 |    Inf | unknown
  0.9s|     1 |     0 |   355 |     - |  3495k |   0 | 130 |  64 | 180 |  96 | 11 |   0 |   0 | 0.000000e+00 | 1.211311e+00 |    Inf | unknown
  0.9s|     1 |     0 |   367 |     - |  3521k |   0 | 130 |  64 | 110 | 101 | 12 |   0 |   0 | 0.000000e+00 | 1.211311e+00 |    Inf | unknown
  0.9s|     1 |     0 |   375 |     - |  3522k |   0 | 130 |  64 | 117 | 108 | 13 |   0 |   0 | 0.000000e+00 | 1.211311e+00 |    Inf | unknown
  0.9s|     1 |     2 |   375 |     - |  3524k |   0 | 130 |  64 | 117 | 108 | 13 |   0 |  24 | 0.000000e+00 | 1.211311e+00 |    Inf | unknown
d 1.3s|    83 |    55 |  4123 |  47.2 |nlpdivin|  12 | 130 | 110 |  69 |   0 |  2 |  51 | 198 | 0.000000e+00 | 8.597524e-01 |    Inf |   8.49%
  1.4s|   100 |    68 |  5222 |  50.2 |  6383k |  12 | 130 | 120 | 154 |1940 |  4 |  63 | 209 | 0.000000e+00 | 8.597524e-01 |    Inf |  10.49%
  1.8s|   200 |   112 |  9713 |  47.5 |  7233k |  23 | 130 | 127 | 156 |4001 |  1 |  75 | 255 | 0.000000e+00 | 8.597524e-01 |    Inf |  13.94%
L 2.1s|   283 |   119 | 13385 |  46.6 |    rins|  23 | 130 | 114 | 161 |5559 |  2 |  98 | 274 | 0.000000e+00 | 5.971562e-01 |    Inf |  26.44%
  2.1s|   300 |   125 | 13703 |  45.0 |  9665k |  23 | 130 | 118 | 123 |5731 |  2 | 103 | 274 | 0.000000e+00 | 5.971562e-01 |    Inf |  27.83%
  2.3s|   400 |   146 | 15514 |  38.2 |  9794k |  25 | 130 | 125 | 138 |6671 |  2 | 115 | 275 | 0.000000e+00 | 5.971562e-01 |    Inf |  31.04%
  2.5s|   500 |   168 | 17625 |  34.8 |  9939k |  25 | 130 | 140 | 160 |7987 |  2 | 138 | 303 | 0.000000e+00 | 5.971562e-01 |    Inf |  31.79%
* 2.5s|   524 |   130 | 18170 |  34.3 |    LP  |  25 | 130 | 120 | 220 |8288 |  8 | 143 | 310 | 0.000000e+00 | 4.817323e-01 |    Inf |  37.46%
 time | node  | left  |LP iter|LP it/n|mem/heur|mdpt |vars |cons |rows |cuts |sepa|confs|strbr|  dualbound   | primalbound  |  gap   | compl. 
  2.7s|   600 |   117 | 19548 |  32.2 |    10M |  25 | 130 | 116 | 157 |8934 |  2 | 150 | 335 | 0.000000e+00 | 4.817323e-01 |    Inf |  51.34%
  2.9s|   700 |   115 | 21659 |  30.6 |    10M |  25 | 130 | 105 | 136 |9902 |  2 | 161 | 362 | 0.000000e+00 | 4.817323e-01 |    Inf |  59.23%
  3.4s|   800 |   137 | 26300 |  32.6 |    10M |  25 | 130 | 104 |   0 |  11k|  0 | 178 | 387 | 0.000000e+00 | 4.817323e-01 |    Inf |  60.75%
  3.7s|   900 |   171 | 29671 |  32.7 |    11M |  25 | 130 | 116 | 193 |  13k|  5 | 202 | 413 | 0.000000e+00 | 4.817323e-01 |    Inf |  61.78%
* 3.7s|   940 |   124 | 30624 |  32.3 |    LP  |  25 | 130 | 101 | 216 |  13k|  8 | 209 | 415 | 0.000000e+00 | 4.080871e-01 |    Inf |  63.10%
  3.9s|  1000 |   105 | 31793 |  31.6 |    12M |  25 | 130 |  99 | 196 |  14k|  0 | 216 | 418 | 0.000000e+00 | 4.080871e-01 |    Inf |  69.77%
  4.1s|  1100 |    67 | 33546 |  30.3 |    12M |  25 | 130 | 109 |   0 |  15k|  0 | 238 | 447 | 0.000000e+00 | 4.080871e-01 |    Inf |  81.74%
  4.4s|  1200 |    67 | 36413 |  30.2 |    12M |  25 | 130 | 121 | 121 |  16k|  2 | 258 | 492 | 0.000000e+00 | 4.080871e-01 |    Inf |  84.99%
  4.6s|  1300 |    78 | 39135 |  29.9 |    12M |  25 | 130 | 116 |   0 |  17k|  0 | 264 | 540 | 0.000000e+00 | 4.080871e-01 |    Inf |  86.94%
  4.8s|  1400 |    78 | 40737 |  28.9 |    12M |  26 | 130 | 109 | 181 |  18k|  0 | 264 | 595 | 0.000000e+00 | 4.080871e-01 |    Inf |  86.95%
  5.0s|  1500 |    78 | 42512 |  28.2 |    12M |  26 | 130 | 109 | 154 |  19k|  2 | 264 | 659 | 0.000000e+00 | 4.080871e-01 |    Inf |  86.96%
  5.1s|  1600 |    72 | 44155 |  27.5 |    12M |  26 | 130 | 111 |  88 |  20k|  2 | 271 | 738 | 0.000000e+00 | 4.080871e-01 |    Inf |  87.03%
  5.4s|  1700 |    79 | 47697 |  27.9 |    12M |  26 | 130 | 115 | 159 |  22k|  7 | 281 | 813 | 0.000000e+00 | 4.080871e-01 |    Inf |  87.29%
  5.7s|  1800 |    88 | 50946 |  28.2 |    12M |  26 | 130 | 115 | 150 |  23k|  2 | 287 | 843 | 0.000000e+00 | 4.080871e-01 |    Inf |  88.32%
  5.9s|  1900 |    61 | 52795 |  27.7 |    12M |  26 | 130 | 117 | 123 |  24k|  2 | 294 | 880 | 0.000000e+00 | 4.080871e-01 |    Inf |  91.10%
 time | node  | left  |LP iter|LP it/n|mem/heur|mdpt |vars |cons |rows |cuts |sepa|confs|strbr|  dualbound   | primalbound  |  gap   | compl. 
  6.1s|  2000 |    52 | 55274 |  27.5 |    12M |  26 | 130 | 119 | 147 |  25k|  5 | 302 | 901 | 2.652747e-02 | 4.080871e-01 |1438.36%|  93.11%
  6.3s|  2100 |    13 | 56652 |  26.9 |    12M |  26 | 130 | 122 | 138 |  26k|  2 | 310 | 940 | 9.673090e-02 | 4.080871e-01 | 321.88%|  98.22%

SCIP Status        : problem is solved [optimal solution found]
Solving Time (sec) : 6.33
Solving Nodes      : 2129
Primal Bound       : +4.08087098455531e-01 (14 solutions)
Dual Bound         : +4.08087098455531e-01
Gap                : 0.00 %


--- Reading solution for model GAMS_MODEL
***
*** Solver did not provide marginals for model GAMS_MODEL
***
--- Executing after solve: elapsed 0:00:06.394
--- model.gms(276) 3 Mb
--- model.gms(462) 5 Mb
--- Putfile results /local/scratch/a/sgusev/repos/k_means/data/gams_scip_gdp.bigm/no_mode/2026-02-15_21-45-02/original/results.dat
--- Putfile statresults /local/scratch/a/sgusev/repos/k_means/data/gams_scip_gdp.bigm/no_mode/2026-02-15_21-45-02/original/resultsstat.dat
*** Status: Normal completion
--- Job model.gms Stop 02/15/26 21:45:09 elapsed 0:00:06.395
Original problem solved. Time taken: 6.949169635772705 seconds
Original objective value: 0.408087098455535
